c weights 1 1 1 1 0.6 0.4 1 1 1 1 0.1 0.9 1 1 1 1 0.4 0.6 1 1 1 1 0.3 0.7 1 1 1 1 0.8 0.2 1 0 
p cnf 16 20
1 2 0
-1 -2 0
-3 1 0
3 2 0
4 5 0
-4 -5 0
-6 4 0
6 5 0
7 8 0
-7 -8 0
-9 7 0
9 8 0
10 11 0
-10 -11 0
-12 10 0
12 11 0
13 14 0
-13 -14 0
-15 13 0
15 14 0
